p edge 652 91
e 347 2
e 347 4
e 347 18
e 347 30
e 347 34
e 347 38
e 347 91
e 347 92
e 347 106
e 347 180
e 347 319
e 347 331
e 347 652
e 2 4
e 2 18
e 2 30
e 2 34
e 2 38
e 2 91
e 2 92
e 2 106
e 2 180
e 2 319
e 2 331
e 2 652
e 4 18
e 4 30
e 4 34
e 4 38
e 4 91
e 4 92
e 4 106
e 4 180
e 4 319
e 4 331
e 4 652
e 18 30
e 18 34
e 18 38
e 18 91
e 18 92
e 18 106
e 18 180
e 18 319
e 18 331
e 18 652
e 30 34
e 30 38
e 30 91
e 30 92
e 30 106
e 30 180
e 30 319
e 30 331
e 30 652
e 34 38
e 34 91
e 34 92
e 34 106
e 34 180
e 34 319
e 34 331
e 34 652
e 38 91
e 38 92
e 38 106
e 38 180
e 38 319
e 38 331
e 38 652
e 91 92
e 91 106
e 91 180
e 91 319
e 91 331
e 91 652
e 92 106
e 92 180
e 92 319
e 92 331
e 92 652
e 106 180
e 106 319
e 106 331
e 106 652
e 180 319
e 180 331
e 180 652
e 319 331
e 319 652
e 331 652
